NAME : 10_3_3_1_(30).dat
COMMENT : Henke, Speranza, Wäscher, 2015
TYPE : MCVRP
DIMENSION : 11
EDGE_WEIGHT_TYPE : DISTANCE_MATRIX
CAPACITY : 1000
VEHICLES : 2
PRODUCT TYPES : 3
COMPARTMENTS : 3
NODE_COORD_SECTION
1 50 50
2 3.92 59.6
3 11.17 59.7
4 80.35 76.99
5 7.77 17.04
6 29.54 27.28
7 46.88 23.83
8 92.93 12.84
9 98.84 17.56
10 53.27 8.31
11 47.38 4.82
DEMAND_SECTION
1 0 0 0
2 243 0 0
3 0 35 0
4 5 0 0
5 184 0 0
6 129 0 0
7 0 228 0
8 0 0 277
9 0 71 0
10 133 0 0
11 0 80 0
DEPOT_SECTION
1
EOF